presolving:
   (0.4s) running MILP presolver
   (0.5s) MILP presolver found nothing
(round 1, exhaustive) 0 del vars, 0 del conss, 0 add conss, 0 chg bounds, 0 chg sides, 0 chg coeffs, 13279 upgd conss, 0 impls, 19 clqs
   (1.8s) probing: 51/13923 (0.4%) - 0 fixings, 0 aggregations, 0 implications, 0 bound changes
   (1.8s) probing aborted: 50/50 successive totally useless probings
   (1.9s) symmetry computation started: requiring (bin +, int -, cont +), (fixed: bin -, int +, cont -)
   (2.1s) no symmetry present
presolving (2 rounds: 2 fast, 2 medium, 2 exhaustive):
 0 deleted vars, 0 deleted constraints, 0 added constraints, 0 tightened bounds, 0 added holes, 0 changed sides, 0 changed coefficients
 0 implications, 19 cliques
presolved problem has 13923 variables (13923 bin, 0 int, 0 impl, 0 cont) and 13279 constraints
    663 constraints of type <knapsack>
     19 constraints of type <setppc>
  12597 constraints of type <logicor>
transformed objective value is always integral (scale: 1)
Presolving Time: 1.98

 time | node  | left  |LP iter|LP it/n|mem/heur|mdpt |vars |cons |rows |cuts |sepa|confs|strbr|  dualbound   | primalbound  |  gap   | compl. 
p 2.5s|     1 |     0 |    19 |     - |  clique|   0 |  13k|  13k|  13k|   0 |  0 |   0 |   0 | 0.000000e+00 | 3.691700e+04 |    Inf | unknown
p 3.1s|     1 |     0 |    20 |     - | vbounds|   0 |  13k|  13k|  13k|   0 |  0 |   0 |   0 | 0.000000e+00 | 1.234100e+04 |    Inf | unknown
p 4.0s|     1 |     0 |  1347 |     - | vbounds|   0 |  13k|  13k|  13k|   0 |  0 |   0 |   0 | 0.000000e+00 | 1.214400e+04 |    Inf | unknown
p 4.2s|     1 |     0 |  1347 |     - | vbounds|   0 |  13k|  13k|  13k|   0 |  0 |   0 |   0 | 0.000000e+00 | 1.049900e+04 |    Inf | unknown
 23.5s|     1 |     0 | 13678 |     - |   139M |   0 |  13k|  13k|  13k|   0 |  0 |   0 |   0 | 4.801432e+03 | 1.049900e+04 | 118.66%| unknown
r23.6s|     1 |     0 | 13678 |     - |rounding|   0 |  13k|  13k|  13k|   0 |  0 |   0 |   0 | 4.801432e+03 | 1.038300e+04 | 116.25%| unknown
 25.6s|     1 |     0 | 13986 |     - |   143M |   0 |  13k|  13k|  13k|   3 |  1 |   0 |   0 | 4.805428e+03 | 1.038300e+04 | 116.07%| unknown
r25.6s|     1 |     0 | 13986 |     - |rounding|   0 |  13k|  13k|  13k|   3 |  1 |   0 |   0 | 4.805428e+03 | 1.038000e+04 | 116.01%| unknown
 25.9s|     1 |     0 | 14150 |     - |   144M |   0 |  13k|  13k|  13k|   5 |  2 |   0 |   0 | 4.806023e+03 | 1.038000e+04 | 115.98%| unknown
 26.2s|     1 |     0 | 14248 |     - |   146M |   0 |  13k|  13k|  13k|   7 |  4 |   0 |   0 | 4.806731e+03 | 1.038000e+04 | 115.95%| unknown
r26.3s|     1 |     0 | 14248 |     - |rounding|   0 |  13k|  13k|  13k|   7 |  4 |   0 |   0 | 4.806731e+03 | 9.467000e+03 |  96.95%| unknown
 26.6s|     1 |     0 | 14355 |     - |   147M |   0 |  13k|  13k|  13k|   8 |  5 |   0 |   0 | 4.807095e+03 | 9.467000e+03 |  96.94%| unknown
i26.6s|     1 |     0 | 14355 |     - |  oneopt|   0 |  13k|  13k|  13k|   8 |  5 |   0 |   0 | 4.807095e+03 | 8.423000e+03 |  75.22%| unknown
 26.9s|     1 |     0 | 14507 |     - |   148M |   0 |  13k|  13k|  13k|   9 |  6 |   0 |   0 | 4.808206e+03 | 8.423000e+03 |  75.18%| unknown
 27.0s|     1 |     0 | 14507 |     - |   149M |   0 |  13k|  13k|  13k|   9 |  6 |   0 |   0 | 4.808206e+03 | 8.423000e+03 |  75.18%| unknown
 time | node  | left  |LP iter|LP it/n|mem/heur|mdpt |vars |cons |rows |cuts |sepa|confs|strbr|  dualbound   | primalbound  |  gap   | compl. 
 27.9s|     1 |     0 | 15245 |     - |   150M |   0 |  13k|  13k|  13k|  10 |  7 |   0 |   0 | 4.816566e+03 | 8.423000e+03 |  74.88%| unknown
 28.2s|     1 |     0 | 15316 |     - |   151M |   0 |  13k|  13k|  13k|  11 |  8 |   0 |   0 | 4.816694e+03 | 8.423000e+03 |  74.87%| unknown
 28.4s|     1 |     0 | 15366 |     - |   153M |   0 |  13k|  13k|  13k|  12 |  9 |   0 |   0 | 4.817349e+03 | 8.423000e+03 |  74.85%| unknown
 28.7s|     1 |     0 | 15382 |     - |   154M |   0 |  13k|  13k|  13k|  13 | 10 |   0 |   0 | 4.817389e+03 | 8.423000e+03 |  74.85%| unknown
o71.1s|     1 |     0 | 52258 |     - |feaspump|   0 |  13k|  13k|  13k|  13 | 12 |   0 |   0 | 4.817389e+03 | 8.036000e+03 |  66.81%| unknown
L71.3s|     1 |     0 | 52258 |     - |    rens|   0 |  13k|  13k|  13k|  13 | 12 |   0 |   0 | 4.817389e+03 | 4.857000e+03 |   0.82%| unknown
 71.9s|     1 |     0 | 52258 |     - |   159M |   0 |  13k|  13k|  13k|  13 | 12 |   0 |   0 | 4.817389e+03 | 4.857000e+03 |   0.82%| unknown
 72.0s|     1 |     0 | 52258 |     - |   162M |   0 |  13k|  13k|  10k|  13 | 12 |   0 |   0 | 4.817389e+03 | 4.857000e+03 |   0.82%| unknown
 72.4s|     1 |     0 | 52309 |     - |   163M |   0 |  13k|4299 |7920 |  18 | 13 |   0 |   0 | 4.818528e+03 | 4.857000e+03 |   0.80%| unknown
 72.4s|     1 |     0 | 52309 |     - |   163M |   0 |  13k|4299 |7886 |  18 | 13 |   0 |   0 | 4.818528e+03 | 4.857000e+03 |   0.80%| unknown
 72.5s|     1 |     0 | 52358 |     - |   163M |   0 |  13k|4299 |7887 |  19 | 14 |   0 |   0 | 4.818917e+03 | 4.857000e+03 |   0.79%| unknown
 72.5s|     1 |     0 | 52358 |     - |   163M |   0 |  13k|4299 |7852 |  19 | 14 |   0 |   0 | 4.818917e+03 | 4.857000e+03 |   0.79%| unknown
(run 1, node 1) restarting after 13410 global fixings of integer variables

(restart) converted 19 cuts from the global cut pool into linear constraints

presolving:
(round 1, fast)       13410 del vars, 3138 del conss, 0 add conss, 0 chg bounds, 0 chg sides, 3616 chg coeffs, 0 upgd conss, 0 impls, 497 clqs
   (72.8s) running MILP presolver
   (72.8s) MILP presolver found nothing
(round 2, medium)     13410 del vars, 3138 del conss, 0 add conss, 0 chg bounds, 2 chg sides, 3620 chg coeffs, 0 upgd conss, 0 impls, 497 clqs
(round 3, exhaustive) 13410 del vars, 3139 del conss, 0 add conss, 0 chg bounds, 2 chg sides, 3620 chg coeffs, 0 upgd conss, 0 impls, 497 clqs
(round 4, exhaustive) 13410 del vars, 3139 del conss, 0 add conss, 0 chg bounds, 2 chg sides, 3620 chg coeffs, 6 upgd conss, 0 impls, 497 clqs
(round 5, medium)     13410 del vars, 3139 del conss, 0 add conss, 0 chg bounds, 6 chg sides, 3628 chg coeffs, 6 upgd conss, 0 impls, 497 clqs
presolving (6 rounds: 6 fast, 5 medium, 3 exhaustive):
 13410 deleted vars, 3139 deleted constraints, 0 added constraints, 0 tightened bounds, 0 added holes, 6 changed sides, 3628 changed coefficients
 0 implications, 497 cliques
presolved problem has 513 variables (513 bin, 0 int, 0 impl, 0 cont) and 550 constraints
     41 constraints of type <knapsack>
     19 constraints of type <setppc>
     12 constraints of type <linear>
    478 constraints of type <logicor>
transformed objective value is always integral (scale: 1)
Presolving Time: 2.18
transformed 5/10 original solutions to the transformed problem space

 time | node  | left  |LP iter|LP it/n|mem/heur|mdpt |vars |cons |rows |cuts |sepa|confs|strbr|  dualbound   | primalbound  |  gap   | compl. 
 73.0s|     1 |     0 | 53256 |     - |   163M |   0 | 513 | 550 | 550 |   0 |  0 |   0 |   0 | 4.818917e+03 | 4.857000e+03 |   0.79%| unknown
 73.0s|     1 |     0 | 53256 |     - |   163M |   0 | 513 | 550 | 516 |   0 |  0 |   0 |   0 | 4.818917e+03 | 4.857000e+03 |   0.79%| unknown
 73.0s|     1 |     0 | 53328 |     - |   164M |   0 | 513 | 535 | 515 |   2 |  1 |   0 |   0 | 4.826419e+03 | 4.857000e+03 |   0.63%| unknown
 73.0s|     1 |     0 | 53328 |     - |   164M |   0 | 513 | 535 | 507 |   2 |  1 |   0 |   0 | 4.826419e+03 | 4.857000e+03 |   0.63%| unknown
 73.1s|     1 |     0 | 53344 |     - |   165M |   0 | 513 | 535 | 508 |   3 |  2 |   0 |   0 | 4.828288e+03 | 4.857000e+03 |   0.59%| unknown
 73.1s|     1 |     0 | 53344 |     - |   165M |   0 | 513 | 535 | 505 |   3 |  2 |   0 |   0 | 4.828288e+03 | 4.857000e+03 |   0.59%| unknown
 73.2s|     1 |     0 | 53387 |     - |   167M |   0 | 513 | 535 | 506 |   4 |  3 |   0 |   0 | 4.831096e+03 | 4.857000e+03 |   0.54%| unknown
 73.2s|     1 |     0 | 53387 |     - |   167M |   0 | 513 | 535 | 504 |   4 |  3 |   0 |   0 | 4.831096e+03 | 4.857000e+03 |   0.54%| unknown
 73.3s|     1 |     0 | 53457 |     - |   167M |   0 | 513 | 534 | 506 |   6 |  4 |   0 |   0 | 4.834886e+03 | 4.857000e+03 |   0.46%| unknown
 73.3s|     1 |     0 | 53457 |     - |   167M |   0 | 513 | 534 | 501 |   6 |  4 |   0 |   0 | 4.834886e+03 | 4.857000e+03 |   0.46%| unknown
 73.3s|     1 |     0 | 53506 |     - |   169M |   0 | 513 | 533 | 502 |   7 |  5 |   0 |   0 | 4.836056e+03 | 4.857000e+03 |   0.43%| unknown
 73.5s|     1 |     0 | 53565 |     - |   169M |   0 | 513 | 533 | 503 |   8 |  6 |   0 |   0 | 4.838527e+03 | 4.857000e+03 |   0.38%| unknown
 73.5s|     1 |     0 | 53565 |     - |   169M |   0 | 513 | 533 | 502 |   8 |  6 |   0 |   0 | 4.838527e+03 | 4.857000e+03 |   0.38%| unknown
 73.6s|     1 |     0 | 53625 |     - |   170M |   0 | 513 | 532 | 503 |   9 |  7 |   0 |   0 | 4.840342e+03 | 4.857000e+03 |   0.34%| unknown
 73.7s|     1 |     0 | 53729 |     - |   170M |   0 | 513 | 530 | 504 |  10 |  8 |   0 |   0 | 4.842564e+03 | 4.857000e+03 |   0.30%| unknown
 time | node  | left  |LP iter|LP it/n|mem/heur|mdpt |vars |cons |rows |cuts |sepa|confs|strbr|  dualbound   | primalbound  |  gap   | compl. 
 73.8s|     1 |     0 | 53729 |     - |   170M |   0 | 513 | 530 | 503 |  10 |  8 |   0 |   0 | 4.842564e+03 | 4.857000e+03 |   0.30%| unknown
 74.0s|     1 |     0 | 53754 |     - |   171M |   0 | 513 | 530 | 505 |  12 |  9 |   0 |   0 | 4.842854e+03 | 4.857000e+03 |   0.29%| unknown
 74.1s|     1 |     0 | 53778 |     - |   172M |   0 | 513 | 530 | 506 |  13 | 10 |   0 |   0 | 4.843276e+03 | 4.857000e+03 |   0.28%| unknown
 74.1s|     1 |     0 | 53812 |     - |   172M |   0 | 513 | 530 | 507 |  14 | 11 |   0 |   0 | 4.843594e+03 | 4.857000e+03 |   0.28%| unknown
 74.2s|     1 |     0 | 53835 |     - |   172M |   0 | 513 | 530 | 509 |  16 | 12 |   0 |   0 | 4.843714e+03 | 4.857000e+03 |   0.27%| unknown
 74.3s|     1 |     0 | 53863 |     - |   172M |   0 | 513 | 528 | 510 |  17 | 13 |   0 |   0 | 4.843852e+03 | 4.857000e+03 |   0.27%| unknown
 74.3s|     1 |     0 | 53870 |     - |   172M |   0 | 513 | 528 | 511 |  18 | 14 |   0 |   0 | 4.843936e+03 | 4.857000e+03 |   0.27%| unknown
 74.4s|     1 |     0 | 53883 |     - |   172M |   0 | 513 | 528 | 511 |  25 | 15 |   0 |   0 | 4.844021e+03 | 4.857000e+03 |   0.27%| unknown
 74.5s|     1 |     0 | 53891 |     - |   172M |   0 | 513 | 528 | 512 |  26 | 17 |   0 |   0 | 4.844066e+03 | 4.857000e+03 |   0.27%| unknown
 74.5s|     1 |     0 | 53926 |     - |   172M |   0 | 513 | 528 | 513 |  27 | 18 |   0 |   0 | 4.844238e+03 | 4.857000e+03 |   0.26%| unknown
(run 2, node 1) restarting after 70 global fixings of integer variables

(restart) converted 27 cuts from the global cut pool into linear constraints

presolving:
(round 1, fast)       70 del vars, 45 del conss, 0 add conss, 0 chg bounds, 0 chg sides, 39 chg coeffs, 0 upgd conss, 0 impls, 430 clqs
(round 2, medium)     70 del vars, 46 del conss, 9 add conss, 0 chg bounds, 1 chg sides, 41 chg coeffs, 0 upgd conss, 0 impls, 430 clqs
(round 3, exhaustive) 70 del vars, 46 del conss, 9 add conss, 0 chg bounds, 1 chg sides, 41 chg coeffs, 8 upgd conss, 0 impls, 430 clqs
(round 4, medium)     70 del vars, 46 del conss, 9 add conss, 0 chg bounds, 5 chg sides, 49 chg coeffs, 8 upgd conss, 0 impls, 430 clqs
presolving (5 rounds: 5 fast, 4 medium, 2 exhaustive):
 70 deleted vars, 46 deleted constraints, 9 added constraints, 0 tightened bounds, 0 added holes, 5 changed sides, 49 changed coefficients
 0 implications, 430 cliques
presolved problem has 443 variables (443 bin, 0 int, 0 impl, 0 cont) and 515 constraints
     45 constraints of type <knapsack>
     28 constraints of type <setppc>
     31 constraints of type <linear>
    411 constraints of type <logicor>
transformed objective value is always integral (scale: 1)
Presolving Time: 2.30
transformed 6/11 original solutions to the transformed problem space

 time | node  | left  |LP iter|LP it/n|mem/heur|mdpt |vars |cons |rows |cuts |sepa|confs|strbr|  dualbound   | primalbound  |  gap   | compl. 
 74.9s|     1 |     0 | 55044 |     - |   168M |   0 | 443 | 515 | 515 |   0 |  0 |   0 |   0 | 4.844239e+03 | 4.857000e+03 |   0.26%| unknown
 74.9s|     1 |     0 | 55044 |     - |   168M |   0 | 443 | 515 | 498 |   0 |  0 |   0 |   0 | 4.844239e+03 | 4.857000e+03 |   0.26%| unknown
 75.0s|     1 |     0 | 55079 |     - |   168M |   0 | 443 | 489 | 496 |   1 |  1 |   0 |   0 | 4.844535e+03 | 4.857000e+03 |   0.26%| unknown
 75.2s|     1 |     0 | 55197 |     - |   168M |   0 | 443 | 489 | 497 |   2 |  2 |   0 |   0 | 4.845682e+03 | 4.857000e+03 |   0.23%| unknown
 75.2s|     1 |     0 | 55197 |     - |   168M |   0 | 443 | 489 | 496 |   2 |  2 |   0 |   0 | 4.845682e+03 | 4.857000e+03 |   0.23%| unknown
 75.4s|     1 |     0 | 55277 |     - |   168M |   0 | 443 | 489 | 497 |   3 |  3 |   0 |   0 | 4.846413e+03 | 4.857000e+03 |   0.22%| unknown
 75.4s|     1 |     0 | 55277 |     - |   168M |   0 | 443 | 489 | 496 |   3 |  3 |   0 |   0 | 4.846413e+03 | 4.857000e+03 |   0.22%| unknown
 75.6s|     1 |     0 | 55367 |     - |   170M |   0 | 443 | 489 | 497 |   4 |  4 |   0 |   0 | 4.846754e+03 | 4.857000e+03 |   0.21%| unknown
 75.8s|     1 |     0 | 55436 |     - |   171M |   0 | 443 | 489 | 498 |   5 |  5 |   0 |   0 | 4.847050e+03 | 4.857000e+03 |   0.21%| unknown
 75.8s|     1 |     0 | 55436 |     - |   171M |   0 | 443 | 489 | 498 |   5 |  5 |   0 |   0 | 4.847050e+03 | 4.857000e+03 |   0.21%| unknown
 76.0s|     1 |     0 | 55510 |     - |   171M |   0 | 443 | 477 | 498 |   6 |  6 |   0 |   0 | 4.847405e+03 | 4.857000e+03 |   0.20%| unknown
 76.1s|     1 |     0 | 55624 |     - |   172M |   0 | 443 | 477 | 499 |   7 |  7 |   0 |   0 | 4.847717e+03 | 4.857000e+03 |   0.19%| unknown
 76.3s|     1 |     0 | 55690 |     - |   172M |   0 | 443 | 477 | 500 |   8 |  8 |   0 |   0 | 4.847898e+03 | 4.857000e+03 |   0.19%| unknown
 76.6s|     1 |     0 | 55740 |     - |   174M |   0 | 443 | 477 | 501 |   9 |  9 |   0 |   0 | 4.848089e+03 | 4.857000e+03 |   0.18%| unknown
 76.9s|     1 |     0 | 55817 |     - |   174M |   0 | 443 | 477 | 502 |  10 | 10 |   0 |   0 | 4.848443e+03 | 4.857000e+03 |   0.18%| unknown
 time | node  | left  |LP iter|LP it/n|mem/heur|mdpt |vars |cons |rows |cuts |sepa|confs|strbr|  dualbound   | primalbound  |  gap   | compl. 
 77.0s|     1 |     0 | 55836 |     - |   174M |   0 | 443 | 477 | 503 |  11 | 11 |   0 |   0 | 4.848476e+03 | 4.857000e+03 |   0.18%| unknown
 77.1s|     1 |     0 | 55858 |     - |   174M |   0 | 443 | 477 | 504 |  12 | 12 |   0 |   0 | 4.848525e+03 | 4.857000e+03 |   0.17%| unknown
 77.3s|     1 |     0 | 55896 |     - |   174M |   0 | 443 | 477 | 506 |  14 | 13 |   0 |   0 | 4.848745e+03 | 4.857000e+03 |   0.17%| unknown
 77.3s|     1 |     0 | 55896 |     - |   174M |   0 | 443 | 477 | 504 |  14 | 13 |   0 |   0 | 4.848745e+03 | 4.857000e+03 |   0.17%| unknown
(run 3, node 1) restarting after 65 global fixings of integer variables

(restart) converted 14 cuts from the global cut pool into linear constraints

presolving:
(round 1, fast)       65 del vars, 23 del conss, 0 add conss, 0 chg bounds, 0 chg sides, 19 chg coeffs, 0 upgd conss, 0 impls, 369 clqs
   (77.6s) running MILP presolver
   (77.6s) MILP presolver (2 rounds): 0 aggregations, 0 fixings, 0 bound changes
(round 2, medium)     65 del vars, 24 del conss, 8 add conss, 0 chg bounds, 0 chg sides, 19 chg coeffs, 0 upgd conss, 0 impls, 369 clqs
(round 3, exhaustive) 65 del vars, 24 del conss, 8 add conss, 0 chg bounds, 0 chg sides, 19 chg coeffs, 2 upgd conss, 0 impls, 369 clqs
(round 4, medium)     65 del vars, 24 del conss, 8 add conss, 0 chg bounds, 1 chg sides, 21 chg coeffs, 2 upgd conss, 0 impls, 369 clqs
presolving (5 rounds: 5 fast, 4 medium, 2 exhaustive):
 65 deleted vars, 24 deleted constraints, 8 added constraints, 0 tightened bounds, 0 added holes, 1 changed sides, 21 changed coefficients
 0 implications, 369 cliques
presolved problem has 378 variables (378 bin, 0 int, 0 impl, 0 cont) and 471 constraints
     42 constraints of type <knapsack>
     36 constraints of type <setppc>
     43 constraints of type <linear>
    350 constraints of type <logicor>
transformed objective value is always integral (scale: 1)
Presolving Time: 2.45
transformed 7/12 original solutions to the transformed problem space

 time | node  | left  |LP iter|LP it/n|mem/heur|mdpt |vars |cons |rows |cuts |sepa|confs|strbr|  dualbound   | primalbound  |  gap   | compl. 
 77.8s|     1 |     0 | 56605 |     - |   175M |   0 | 378 | 471 | 471 |   0 |  0 |   0 |   0 | 4.848745e+03 | 4.857000e+03 |   0.17%| unknown
 77.8s|     1 |     0 | 56605 |     - |   175M |   0 | 378 | 471 | 465 |   0 |  0 |   0 |   0 | 4.848745e+03 | 4.857000e+03 |   0.17%| unknown
 77.9s|     1 |     0 | 56679 |     - |   177M |   0 | 378 | 440 | 456 |   1 |  1 |   0 |   0 | 4.849105e+03 | 4.857000e+03 |   0.16%| unknown
 78.1s|     1 |     0 | 56718 |     - |   178M |   0 | 378 | 440 | 457 |   2 |  2 |   0 |   0 | 4.849265e+03 | 4.857000e+03 |   0.16%| unknown
 78.3s|     1 |     0 | 56815 |     - |   178M |   0 | 378 | 440 | 458 |   3 |  3 |   0 |   0 | 4.849470e+03 | 4.857000e+03 |   0.16%| unknown
 78.4s|     1 |     0 | 56851 |     - |   178M |   0 | 378 | 440 | 459 |   4 |  4 |   0 |   0 | 4.849530e+03 | 4.857000e+03 |   0.15%| unknown
 78.6s|     1 |     0 | 56874 |     - |   180M |   0 | 378 | 440 | 465 |  10 |  5 |   0 |   0 | 4.849546e+03 | 4.857000e+03 |   0.15%| unknown
 78.8s|     1 |     0 | 56896 |     - |   180M |   0 | 378 | 440 | 466 |  11 |  6 |   0 |   0 | 4.849608e+03 | 4.857000e+03 |   0.15%| unknown
 79.0s|     1 |     0 | 56969 |     - |   180M |   0 | 378 | 440 | 467 |  12 |  7 |   0 |   0 | 4.849793e+03 | 4.857000e+03 |   0.15%| unknown
 79.2s|     1 |     0 | 57020 |     - |   180M |   0 | 378 | 440 | 468 |  13 |  8 |   0 |   0 | 4.849902e+03 | 4.857000e+03 |   0.15%| unknown
 79.2s|     1 |     0 | 57020 |     - |   180M |   0 | 378 | 440 | 466 |  13 |  8 |   0 |   0 | 4.849902e+03 | 4.857000e+03 |   0.15%| unknown
 79.4s|     1 |     0 | 57058 |     - |   181M |   0 | 378 | 440 | 467 |  14 |  9 |   0 |   0 | 4.849975e+03 | 4.857000e+03 |   0.14%| unknown
 79.6s|     1 |     0 | 57131 |     - |   183M |   0 | 378 | 440 | 468 |  15 | 10 |   0 |   0 | 4.850065e+03 | 4.857000e+03 |   0.14%| unknown
 79.7s|     1 |     0 | 57169 |     - |   183M |   0 | 378 | 440 | 474 |  21 | 11 |   0 |   0 | 4.850073e+03 | 4.857000e+03 |   0.14%| unknown
(run 4, node 1) restarting after 41 global fixings of integer variables

(restart) converted 21 cuts from the global cut pool into linear constraints

presolving:
(round 1, fast)       41 del vars, 7 del conss, 0 add conss, 0 chg bounds, 0 chg sides, 5 chg coeffs, 0 upgd conss, 0 impls, 331 clqs
(round 2, exhaustive) 41 del vars, 7 del conss, 0 add conss, 0 chg bounds, 0 chg sides, 5 chg coeffs, 4 upgd conss, 0 impls, 331 clqs
(round 3, fast)       41 del vars, 7 del conss, 0 add conss, 0 chg bounds, 0 chg sides, 16 chg coeffs, 4 upgd conss, 0 impls, 331 clqs
(round 4, medium)     41 del vars, 7 del conss, 0 add conss, 0 chg bounds, 1 chg sides, 18 chg coeffs, 4 upgd conss, 0 impls, 331 clqs
presolving (5 rounds: 5 fast, 3 medium, 2 exhaustive):
 41 deleted vars, 7 deleted constraints, 0 added constraints, 0 tightened bounds, 0 added holes, 1 changed sides, 18 changed coefficients
 0 implications, 331 cliques
presolved problem has 337 variables (337 bin, 0 int, 0 impl, 0 cont) and 444 constraints
     44 constraints of type <knapsack>
     28 constraints of type <setppc>
     60 constraints of type <linear>
    312 constraints of type <logicor>
transformed objective value is always integral (scale: 1)
Presolving Time: 2.51
transformed 8/13 original solutions to the transformed problem space

 time | node  | left  |LP iter|LP it/n|mem/heur|mdpt |vars |cons |rows |cuts |sepa|confs|strbr|  dualbound   | primalbound  |  gap   | compl. 
 80.1s|     1 |     0 | 57962 |     - |   180M |   0 | 337 | 444 | 444 |   0 |  0 |   0 |   0 | 4.850079e+03 | 4.857000e+03 |   0.14%| unknown
 80.1s|     1 |     0 | 57962 |     - |   180M |   0 | 337 | 444 | 434 |   0 |  0 |   0 |   0 | 4.850079e+03 | 4.857000e+03 |   0.14%| unknown
 80.2s|     1 |     0 | 58016 |     - |   180M |   0 | 337 | 430 | 433 |   1 |  1 |   0 |   0 | 4.850145e+03 | 4.857000e+03 |   0.14%| unknown
 80.4s|     1 |     0 | 58046 |     - |   181M |   0 | 337 | 430 | 434 |   2 |  2 |   0 |   0 | 4.850164e+03 | 4.857000e+03 |   0.14%| unknown
 80.6s|     1 |     0 | 58126 |     - |   181M |   0 | 337 | 430 | 436 |   4 |  3 |   0 |   0 | 4.850182e+03 | 4.857000e+03 |   0.14%| unknown
 80.9s|     1 |     0 | 58168 |     - |   182M |   0 | 337 | 430 | 437 |   5 |  4 |   0 |   0 | 4.850224e+03 | 4.857000e+03 |   0.14%| unknown
 81.2s|     1 |     0 | 58180 |     - |   182M |   0 | 337 | 430 | 440 |   8 |  5 |   0 |   0 | 4.850225e+03 | 4.857000e+03 |   0.14%| unknown
 81.3s|     1 |     0 | 58213 |     - |   182M |   0 | 337 | 430 | 441 |   9 |  6 |   0 |   0 | 4.850238e+03 | 4.857000e+03 |   0.14%| unknown
 81.5s|     1 |     0 | 58267 |     - |   182M |   0 | 337 | 430 | 442 |  10 |  7 |   0 |   0 | 4.850283e+03 | 4.857000e+03 |   0.14%| unknown
 81.7s|     1 |     0 | 58280 |     - |   182M |   0 | 337 | 430 | 445 |  13 |  8 |   0 |   0 | 4.850286e+03 | 4.857000e+03 |   0.14%| unknown
 81.8s|     1 |     0 | 58343 |     - |   182M |   0 | 337 | 430 | 446 |  14 |  9 |   0 |   0 | 4.850373e+03 | 4.857000e+03 |   0.14%| unknown
 82.0s|     1 |     0 | 58386 |     - |   182M |   0 | 337 | 430 | 447 |  15 | 10 |   0 |   0 | 4.850386e+03 | 4.857000e+03 |   0.14%| unknown
 82.1s|     1 |     0 | 58399 |     - |   183M |   0 | 337 | 430 | 452 |  20 | 11 |   0 |   0 | 4.850387e+03 | 4.857000e+03 |   0.14%| unknown
 82.3s|     1 |     0 | 58557 |     - |   183M |   0 | 337 | 428 | 452 |  20 | 11 |   2 |   1 | 4.855086e+03 | 4.857000e+03 |   0.04%| unknown
(run 5, node 1) restarting after 38 global fixings of integer variables

(restart) converted 20 cuts from the global cut pool into linear constraints

presolving:
(round 1, fast)       38 del vars, 29 del conss, 0 add conss, 0 chg bounds, 0 chg sides, 21 chg coeffs, 0 upgd conss, 0 impls, 296 clqs
   (82.4s) running MILP presolver
   (82.4s) MILP presolver (2 rounds): 0 aggregations, 0 fixings, 0 bound changes
(round 2, exhaustive) 38 del vars, 29 del conss, 0 add conss, 0 chg bounds, 0 chg sides, 21 chg coeffs, 5 upgd conss, 0 impls, 296 clqs
(round 3, fast)       38 del vars, 29 del conss, 0 add conss, 0 chg bounds, 0 chg sides, 30 chg coeffs, 5 upgd conss, 0 impls, 296 clqs
(round 4, medium)     38 del vars, 29 del conss, 0 add conss, 0 chg bounds, 2 chg sides, 34 chg coeffs, 5 upgd conss, 0 impls, 296 clqs
presolving (5 rounds: 5 fast, 3 medium, 2 exhaustive):
 38 deleted vars, 29 deleted constraints, 0 added constraints, 0 tightened bounds, 0 added holes, 2 changed sides, 34 changed coefficients
 0 implications, 296 cliques
presolved problem has 299 variables (299 bin, 0 int, 0 impl, 0 cont) and 419 constraints
     45 constraints of type <knapsack>
     28 constraints of type <setppc>
     69 constraints of type <linear>
    277 constraints of type <logicor>
transformed objective value is always integral (scale: 1)
Presolving Time: 2.60
transformed 3/14 original solutions to the transformed problem space

 time | node  | left  |LP iter|LP it/n|mem/heur|mdpt |vars |cons |rows |cuts |sepa|confs|strbr|  dualbound   | primalbound  |  gap   | compl. 
 82.5s|     1 |     0 | 59184 |     - |   183M |   0 | 299 | 419 | 419 |   0 |  0 |   2 |   1 | 4.855086e+03 | 4.857000e+03 |   0.04%| unknown
 82.5s|     1 |     0 | 59184 |     - |   183M |   0 | 299 | 419 | 386 |   0 |  0 |   2 |   1 | 4.855086e+03 | 4.857000e+03 |   0.04%| unknown
 82.6s|     1 |     0 | 59192 |     - |   184M |   0 | 299 | 374 | 375 |   1 |  1 |   2 |   1 | 4.857000e+03 | 4.857000e+03 |   0.00%| unknown
 82.6s|     1 |     0 | 59192 |     - |   184M |   0 | 299 | 374 | 375 |   1 |  1 |   2 |   1 | 4.857000e+03 | 4.857000e+03 |   0.00%| unknown

SCIP Status        : problem is solved [optimal solution found]
Solving Time (sec) : 82.65
Solving Nodes      : 1 (total of 6 nodes in 6 runs)
Primal Bound       : +4.85700000000000e+03 (14 solutions)
Dual Bound         : +4.85700000000000e+03
Gap                : 0.00 %
Solve Status: optimal
Solve Time: 82.66 seconds
